This is Ipopt version 3.14.14, running with linear solver MUMPS 5.6.2.

Number of nonzeros in equality constraint Jacobian...:        0
Number of nonzeros in inequality constraint Jacobian.:      100
Number of nonzeros in Lagrangian Hessian.............:        0

Total number of variables............................:       10
                     variables with only lower bounds:        0
                variables with lower and upper bounds:       10
                     variables with only upper bounds:        0
Total number of equality constraints.................:        0
Total number of inequality constraints...............:       10
        inequality constraints with only lower bounds:        0
   inequality constraints with lower and upper bounds:        0
        inequality constraints with only upper bounds:       10

iter    objective    inf_pr   inf_du lg(mu)  ||d||  lg(rg) alpha_du alpha_pr  ls
   0  1.0431472e-02 0.00e+00 5.91e-01   0.0 0.00e+00    -  0.00e+00 0.00e+00   0
   1  1.0431149e-02 0.00e+00 6.62e-03  -5.6 1.90e-04    -  9.89e-01 1.00e+00f  1
   2  1.0860995e-02 0.00e+00 8.47e-02  -1.6 7.07e+00    -  5.76e-02 1.73e-01f  1
   3  1.3506065e-02 0.00e+00 1.62e+00  -1.6 4.81e+00    -  1.55e-02 1.00e+00f  1
   4  1.3612971e-02 0.00e+00 5.46e-03  -1.6 2.18e+00    -  9.91e-01 1.00e+00h  1
   5  1.3068924e-02 0.00e+00 2.60e-04  -1.6 4.21e-01    -  1.00e+00 1.00e+00h  1
   6  1.2330088e-02 0.00e+00 1.51e-03  -2.5 2.98e-01    -  1.00e+00 1.00e+00h  1
   7  5.8709182e-03 0.00e+00 8.56e-03  -3.7 3.05e+00    -  4.66e-01 5.00e-01h  2
   8  3.9825011e-03 0.00e+00 6.71e-03  -3.2 1.92e+00    -  9.64e-01 1.00e+00h  1
   9  3.8505647e-03 0.00e+00 3.48e-02  -2.9 1.87e+00    -  1.00e+00 1.00e+00H  1
iter    objective    inf_pr   inf_du lg(mu)  ||d||  lg(rg) alpha_du alpha_pr  ls
  10  5.5476423e-03 0.00e+00 5.34e-02  -3.3 6.93e-01    -  1.00e+00 1.00e+00H  1
  11  6.7621768e-03 0.00e+00 7.16e-02  -2.4 6.96e+00    -  8.38e-01 2.19e-01h  2
  12  9.1852773e-03 0.00e+00 9.41e-03  -2.6 4.82e+00    -  8.93e-01 1.00e+00h  1
  13  8.4260598e-03 0.00e+00 7.46e-03  -2.6 2.24e+00    -  1.00e+00 1.00e+00h  1
  14  7.1912055e-03 0.00e+00 1.30e-02  -2.6 9.51e-01    -  1.00e+00 1.00e+00h  1
  15  4.8142455e-03 0.00e+00 2.77e-03  -3.2 1.31e+00    -  9.95e-01 1.00e+00h  1
  16  3.7723520e-03 0.00e+00 1.59e-03  -3.6 7.39e-01    -  9.20e-01 1.00e+00h  1
  17  2.0989405e-03 0.00e+00 8.57e-03  -4.1 7.24e-01    -  9.83e-01 1.00e+00h  1
  18  3.7675919e-03 2.02e-01 1.94e-02  -3.8 3.90e-01    -  9.18e-01 1.00e+00H  1
  19  3.4710092e-03 0.00e+00 1.33e-02  -9.9 7.05e-01    -  5.86e-04 1.16e-04H  1
iter    objective    inf_pr   inf_du lg(mu)  ||d||  lg(rg) alpha_du alpha_pr  ls
  20  3.8392353e-03 0.00e+00 2.80e-02  -3.4 8.17e-01    -  6.66e-01 2.36e-01h  3
  21  3.0647139e-03 0.00e+00 5.10e-03  -4.3 3.08e+00    -  4.44e-01 4.31e-01h  2
  22  2.1662561e-03 0.00e+00 6.70e-03  -3.5 7.91e-01    -  1.00e+00 1.00e+00h  1
  23  2.9869515e-03 3.67e-02 3.53e-02  -3.3 6.31e-01    -  1.00e+00 5.87e-01H  1
  24  1.1192059e-03 2.70e-01 4.95e-03  -3.6 2.22e-01    -  1.00e+00 1.00e+00h  1
  25  1.1382190e-03 0.00e+00 4.20e-03  -4.3 1.07e-01    -  7.19e-01 1.00e+00h  1
  26  1.0273666e-03 0.00e+00 3.38e-03  -4.1 3.76e-01    -  9.93e-01 2.50e-01h  3
  27  1.0679626e-03 0.00e+00 4.43e-03  -4.2 1.66e-01    -  1.00e+00 9.13e-01H  1
  28  8.7520141e-04 2.53e-02 1.42e-03  -5.4 5.12e-02    -  1.00e+00 1.00e+00h  1
  29  8.5783555e-04 2.88e-01 3.58e-03  -4.7 1.01e-01    -  1.00e+00 1.00e+00h  1
iter    objective    inf_pr   inf_du lg(mu)  ||d||  lg(rg) alpha_du alpha_pr  ls
  30  9.9131130e-04 0.00e+00 7.16e-03  -4.5 1.24e-01    -  1.00e+00 1.00e+00h  1
  31  9.2499127e-04 2.16e-02 6.62e-03  -4.3 4.25e-01    -  1.00e+00 2.50e-01h  3
  32  9.3284210e-04 3.55e-01 4.12e-03  -4.4 4.39e-01    -  7.53e-01 1.25e-01h  4
  33  9.0911706e-04 2.99e-01 3.11e-03  -4.4 2.31e-01    -  7.87e-01 1.32e-01h  2
  34  8.8180656e-04 2.72e-01 5.63e-03  -4.4 1.47e-01    -  1.00e+00 1.00e+00H  1
  35  8.2749785e-04 0.00e+00 5.15e-01  -4.4 1.20e-01    -  1.00e+00 4.45e-01h  2
  36  7.1996122e-04 3.08e-01 1.15e-02  -4.6 1.34e-01    -  1.00e+00 5.00e-01h  2
  37  6.9006754e-04 0.00e+00 3.90e-02  -5.1 1.32e-01    -  1.00e+00 1.00e+00h  1
  38  6.3442814e-04 6.84e+00 1.95e+00  -4.9 2.56e-01    -  1.00e+00 1.00e+00h  1
  39  2.5090152e-02 3.35e+00 4.41e-01  -4.9 3.33e-01    -  6.26e-01 9.33e-01h  1
iter    objective    inf_pr   inf_du lg(mu)  ||d||  lg(rg) alpha_du alpha_pr  ls
  40  1.7928350e-02 1.68e+00 1.60e-01  -5.1 1.13e+00    -  1.88e-02 1.00e+00h  1
  41  3.1475900e-03 1.41e+00 3.27e-02  -5.1 1.98e+02    -  8.71e-03 5.87e-03h  1
  42  6.1832794e-03 3.75e-01 4.42e-02  -5.1 3.11e+01    -  1.56e-02 1.46e-02h  2
  43  3.8431917e-03 0.00e+00 7.71e-03  -5.1 2.44e+01    -  7.29e-02 4.75e-02h  1
  44  3.8429767e-03 0.00e+00 2.64e-02  -5.1 4.18e-01    -  1.00e+00 9.17e-01f  1
  45  2.1910812e-03 1.14e+00 8.76e-03  -5.1 1.67e+00    -  2.55e-01 2.04e-01h  2
  46  2.4035150e-03 2.70e-01 6.89e-03  -5.1 3.32e+00    -  1.00e+00 4.79e-01h  1
  47  1.9844520e-03 2.89e+00 2.25e-02  -5.1 2.99e+00    -  8.84e-01 5.68e-01h  1
  48  1.1671672e-02 1.77e-01 1.12e-01  -5.1 4.57e+00    -  1.83e-01 8.39e-02h  2
  49  1.0814928e-02 0.00e+00 1.10e-01  -5.1 1.81e+00    -  9.39e-02 3.12e-02h  6
iter    objective    inf_pr   inf_du lg(mu)  ||d||  lg(rg) alpha_du alpha_pr  ls
  50  9.8614997e-03 0.00e+00 1.14e-01  -5.1 3.22e+00    -  8.20e-02 6.19e-02h  3
  51  1.6218521e-03 0.00e+00 1.04e-02  -5.1 2.89e+05    -  5.15e-06 2.02e-03f  3
  52  1.3693949e-03 1.26e-01 6.62e-03  -5.1 5.92e+02    -  3.85e-01 9.89e-01h  1
  53  1.4243481e-03 0.00e+00 7.71e-03  -5.1 4.28e+00    -  1.00e+00 5.31e-02h  1
  54  1.3559111e-03 0.00e+00 1.12e-02  -5.1 4.01e-02    -  1.00e+00 1.00e+00f  1
  55  1.2799164e-03 0.00e+00 4.22e-03  -5.1 6.28e-02    -  1.00e+00 1.00e+00h  1
  56  1.1874156e-03 2.98e-01 1.28e-02  -5.1 1.04e+00    -  6.22e-01 2.50e-01h  3
  57  1.1086903e-03 1.31e-01 1.18e-02  -5.1 4.82e-01    -  1.00e+00 1.36e-01h  2
  58  1.0044344e-03 1.20e-03 1.23e-03  -5.1 7.45e-01    -  1.00e+00 7.95e-01H  1
  59  9.9432889e-04 0.00e+00 3.66e-03  -5.1 6.02e-01    -  1.00e+00 1.00e+00h  1
iter    objective    inf_pr   inf_du lg(mu)  ||d||  lg(rg) alpha_du alpha_pr  ls
  60  9.3941220e-04 0.00e+00 4.10e-03  -5.1 2.90e+00    -  5.69e-01 2.55e-02h  4
  61  9.2036443e-04 0.00e+00 4.78e-03  -5.1 5.17e-01    -  1.00e+00 6.25e-02h  5
  62  8.5049552e-04 0.00e+00 5.66e-03  -5.1 3.70e-01    -  1.00e+00 9.24e-01h  1
  63  8.0373739e-04 0.00e+00 9.43e-03  -5.1 2.51e-01    -  1.00e+00 1.00e+00f  1
  64  1.0497940e-03 0.00e+00 5.33e-03  -4.2 1.49e+00    -  1.00e+00 9.81e-01H  1
  65  1.0586981e-03 2.85e+00 1.29e-02  -4.3 3.81e-01    -  1.00e+00 1.00e+00h  1
  66  9.7870753e-04 2.43e+00 7.71e-03  -4.3 1.04e+00    -  6.36e-01 1.17e-01h  3
  67  1.0000916e-03 1.63e+00 6.32e-03  -4.3 9.64e-01    -  1.00e+00 2.50e-01h  3
  68  9.1270099e-04 2.17e+00 1.21e-02  -4.3 4.94e+00    -  1.00e+00 1.65e-01h  2
  69  7.9759067e-04 0.00e+00 3.34e-03  -4.3 6.60e-01    -  9.67e-01 5.00e-01h  2
iter    objective    inf_pr   inf_du lg(mu)  ||d||  lg(rg) alpha_du alpha_pr  ls
  70  8.1008592e-04 6.67e+00 7.51e-02  -4.3 1.63e+01    -  4.83e-01 2.08e-01h  3
  71  8.0709886e-04 4.68e+00 3.00e-02  -4.3 1.46e+00    -  1.00e+00 1.96e-01h  2
  72  8.3742616e-04 1.51e+00 7.19e-03  -4.3 1.28e+01    -  7.66e-01 2.50e-01h  3
  73  8.4040292e-04 1.73e+00 5.93e-03  -4.3 1.23e+01    -  1.00e+00 1.63e-01h  3
  74  7.8593896e-04 1.05e+00 1.98e-03  -4.3 6.78e+00    -  1.00e+00 4.43e-01h  2
  75  8.1123059e-04 1.23e+00 4.96e-03  -4.3 8.21e+00    -  6.61e-01 9.16e-02h  3
  76  2.7279565e-02 4.33e+00 5.03e-01  -4.3 3.25e+00    -  1.00e+00 6.95e-01w  1
  77  1.1811448e-02 3.74e+00 2.34e-01  -4.3 7.50e-01    -  1.39e-01 1.86e-01w  1
  78  7.9210309e-03 7.16e-01 1.07e-01  -4.3 2.68e+01    -  8.76e-02 5.14e-01w  1
  79  7.8651643e-04 1.22e+00 4.19e-03  -4.3 5.43e+00    -  1.00e+00 8.68e-02h  3
iter    objective    inf_pr   inf_du lg(mu)  ||d||  lg(rg) alpha_du alpha_pr  ls
  80  8.1805457e-04 8.44e-01 4.95e-03  -4.3 1.16e+00    -  1.00e+00 2.50e-01h  3
  81  1.0479120e-03 3.19e-01 6.18e-03  -4.3 1.86e+00    -  1.00e+00 9.04e-01h  1
  82  2.3469391e-03 0.00e+00 9.75e-03  -4.3 4.38e-01    -  1.00e+00 1.00e+00h  1
  83  4.5071686e-03 2.16e-01 1.02e-01  -4.3 5.54e-01    -  8.33e-01 7.91e-01h  1
  84  2.5452453e-03 7.29e-03 5.27e-02  -4.3 1.70e+00    -  3.71e-01 2.50e-01h  3
  85  1.4818914e-03 0.00e+00 9.17e-03  -4.3 2.09e+00    -  1.69e-01 2.10e-01h  1
  86  1.5766224e-03 0.00e+00 2.92e-02  -4.3 1.14e+00    -  1.80e-01 1.24e-01f  2
  87  1.3990561e-03 0.00e+00 9.02e-03  -4.3 2.09e-01    -  1.00e+00 1.00e+00h  1
  88  1.3923774e-03 0.00e+00 3.63e-03  -4.3 6.36e-01    -  1.00e+00 1.92e-01h  3
  89  1.2768934e-03 0.00e+00 2.18e-03  -4.8 2.76e-01    -  9.99e-01 5.00e-01h  2
iter    objective    inf_pr   inf_du lg(mu)  ||d||  lg(rg) alpha_du alpha_pr  ls
  90  1.2276326e-03 5.77e-01 1.30e-02  -4.8 5.87e-01    -  5.79e-01 2.77e-01h  2
  91  1.4324811e-03 0.00e+00 4.65e-03  -4.8 9.17e-01    -  1.89e-01 3.24e-01h  2
  92  1.3523191e-03 0.00e+00 5.47e-03  -4.8 2.90e-02    -  1.00e+00 1.00e+00h  1
  93  1.3504012e-03 0.00e+00 2.35e-03  -4.8 1.81e-02    -  1.00e+00 1.00e+00h  1
  94  1.3351757e-03 0.00e+00 2.03e-03  -6.7 4.83e-02    -  1.00e+00 1.00e+00h  1
  95  1.2319501e-03 4.73e-01 7.93e-03  -6.6 3.66e-02    -  1.00e+00 1.00e+00h  1
  96  1.1068528e-03 6.19e-01 1.19e-02  -6.7 2.77e-01    -  7.92e-01 1.46e-01h  1
  97  2.7808062e-03 3.38e-01 4.03e-02  -6.7 9.23e-02    -  1.00e+00 1.00e+00h  1
  98  1.0723592e-03 4.34e-01 3.23e-03  -6.7 9.10e-02    -  2.04e-01 1.00e+00h  1
  99  1.1092758e-03 2.48e-01 4.73e-03  -6.7 1.36e-02    -  3.24e-01 4.45e-01h  1
iter    objective    inf_pr   inf_du lg(mu)  ||d||  lg(rg) alpha_du alpha_pr  ls
 100  1.1631478e-03 6.68e-02 2.23e-03  -6.7 1.43e-02    -  1.00e+00 7.53e-01h  1
 101  1.1995317e-03 4.71e-04 8.81e-04  -6.7 8.85e-03    -  1.00e+00 1.00e+00h  1
 102  1.2393326e-03 0.00e+00 5.71e-03  -8.2 1.21e-02    -  1.00e+00 9.84e-01H  1
 103  1.1868103e-03 8.47e-03 6.94e-04  -9.3 9.89e-03    -  1.00e+00 1.00e+00h  1
 104  1.1891287e-03 0.00e+00 5.22e-04  -7.0 1.56e-03    -  1.00e+00 1.00e+00h  1
 105  1.1762557e-03 1.89e-03 8.60e-04  -8.3 1.74e-02    -  1.00e+00 1.00e+00h  1
 106  1.1384449e-03 4.56e-02 4.56e-03  -9.6 8.43e-02    -  1.00e+00 1.00e+00H  1
 107  1.1352915e-03 4.74e-01 1.06e-02  -9.5 1.08e+00    -  1.00e+00 5.56e-02h  1
 108  1.1352225e-03 4.50e-01 9.90e-03  -9.5 1.21e-01    -  1.00e+00 2.50e-01h  3
 109  1.0336692e-03 6.23e-01 1.37e-02  -9.5 7.36e-02    -  1.92e-01 1.00e+00h  1
iter    objective    inf_pr   inf_du lg(mu)  ||d||  lg(rg) alpha_du alpha_pr  ls
 110  1.0231457e-03 5.41e-01 9.63e-03  -9.5 1.66e-01    -  5.96e-01 8.46e-01h  1
 111r 1.0231457e-03 5.41e-01 9.99e+02  -0.3 0.00e+00    -  0.00e+00 2.18e-09R 13
 112r 1.0231779e-03 5.40e-01 2.81e+00  -6.7 5.41e+02    -  1.00e+00 2.77e-07f  1
 113r 1.3133588e-03 4.38e-02 2.24e-01  -5.0 5.41e-01    -  9.76e-01 9.84e-01f  1
 114  1.3133353e-03 4.38e-02 2.84e-01  -9.5 8.49e-01    -  4.40e-02 3.28e-05h  1
 115  1.3122863e-03 4.37e-02 1.11e-01  -9.5 3.92e-02    -  6.13e-01 2.81e-03f  1
 116  1.0832347e-03 3.03e-01 7.08e-03  -9.5 4.63e-02    -  1.00e+00 1.00e+00f  1
 117  1.1083607e-03 2.10e-01 4.17e-03  -9.5 2.94e-02    -  1.00e+00 3.23e-01h  2
 118  1.2053147e-03 1.62e-02 1.55e-03  -9.5 3.31e-02    -  8.30e-01 1.00e+00h  1
 119  1.1814301e-03 3.02e-02 1.49e-03  -9.5 1.40e-02    -  1.00e+00 8.46e-01h  1
iter    objective    inf_pr   inf_du lg(mu)  ||d||  lg(rg) alpha_du alpha_pr  ls
 120  1.1912225e-03 9.78e-03 4.43e-04  -9.5 9.51e-03    -  1.00e+00 6.85e-01h  1
 121  1.1911001e-03 8.08e-03 1.41e-03  -9.5 8.88e-02    -  1.00e+00 5.08e-01h  1
 122  1.2015083e-03 4.79e-04 2.41e-03  -9.5 3.97e-02    -  1.00e+00 1.00e+00H  1
 123  1.1928335e-03 7.12e-04 1.11e-03  -9.5 3.01e-02    -  1.00e+00 5.71e-01h  1
 124  1.1904195e-03 7.09e-03 1.38e-03  -9.5 3.43e-02    -  1.00e+00 1.00e+00h  1
 125  1.1863037e-03 7.45e-03 3.23e-04  -9.5 2.67e-02    -  1.00e+00 1.00e+00h  1
 126  1.1896186e-03 7.20e-04 1.86e-04  -9.5 9.22e-03    -  1.00e+00 1.00e+00h  1
 127  1.2073258e-03 0.00e+00 3.83e-03  -9.5 1.55e-02    -  1.00e+00 1.00e+00H  1
 128  1.1871159e-03 4.69e-03 1.47e-04  -9.5 1.23e-02    -  1.00e+00 1.00e+00h  1
 129  1.1897555e-03 3.76e-06 7.19e-05  -9.5 6.41e-04    -  1.00e+00 1.00e+00h  1
iter    objective    inf_pr   inf_du lg(mu)  ||d||  lg(rg) alpha_du alpha_pr  ls
 130  1.1896993e-03 2.16e-05 5.09e-05 -10.9 1.27e-03    -  1.00e+00 1.00e+00h  1
 131  1.1904946e-03 0.00e+00 4.46e-04 -11.0 3.76e-02    -  1.00e+00 1.00e+00H  1
 132  1.1898658e-03 4.44e-03 3.91e-03 -11.0 5.92e-02    -  1.00e+00 1.00e+00H  1
 133  1.1685913e-03 0.00e+00 2.44e+00 -11.0 9.21e-02    -  1.00e+00 1.00e+00h  1
 134  1.1560766e-03 0.00e+00 2.96e+02 -11.0 4.16e+00    -  5.11e-02 5.37e-03h  6
 135  1.1510435e-03 0.00e+00 2.61e-03 -11.0 2.03e-03    -  4.08e-02 1.00e+00h  1
 136  1.1418479e-03 0.00e+00 6.85e-02 -11.0 3.02e-02    -  1.81e-01 5.00e-01h  2
 137  1.1418468e-03 3.12e-13 6.85e-02 -11.0 6.14e-03    -  1.00e+00 4.83e-05h  1
 138  1.1355599e-03 0.00e+00 8.47e-03 -11.0 3.31e-03    -  6.19e-01 1.00e+00h  1
 139  1.1355598e-03 2.01e-13 8.47e-03 -11.0 2.30e-03    -  1.00e+00 1.22e-05h  1
iter    objective    inf_pr   inf_du lg(mu)  ||d||  lg(rg) alpha_du alpha_pr  ls
 140  1.1349671e-03 0.00e+00 1.87e-03 -11.0 1.24e-03    -  1.00e+00 7.13e-01h  1
 141  1.1334799e-03 0.00e+00 1.30e-03 -11.0 4.44e-03    -  5.76e-01 1.00e+00h  1
 142  1.1318770e-03 1.76e+01 1.29e-03 -11.0 2.54e+01    -  8.50e-01 1.00e+00h  1
 143  1.1292309e-03 2.69e+01 7.68e-04 -11.0 1.80e+02    -  1.00e+00 7.07e-02h  2
 144  1.1329782e-03 1.51e+01 2.57e-03 -11.0 2.01e+01    -  3.87e-01 2.50e-01h  3
 145  1.1329703e-03 1.54e+01 2.58e-03 -11.0 1.35e+03    -  1.00e+00 2.05e-04h  7
 146  1.1329628e-03 1.56e+01 2.59e-03 -11.0 1.39e+03    -  1.00e+00 1.96e-04h  7
 147  1.1329551e-03 1.59e+01 2.60e-03 -11.0 1.17e+03    -  1.00e+00 2.29e-04h  7
 148  1.1323746e-03 3.77e+01 1.96e-03 -11.0 7.12e+01    -  1.00e+00 2.38e-01h  1
 149  1.1280027e-03 1.48e+01 8.04e-04 -11.0 1.43e-02    -  7.99e-01 1.00e+00h  1
iter    objective    inf_pr   inf_du lg(mu)  ||d||  lg(rg) alpha_du alpha_pr  ls
 150  1.1257953e-03 2.81e+00 5.00e-04 -11.0 5.31e+01    -  1.00e+00 1.00e+00h  1
 151  1.1256643e-03 1.85e+00 5.42e-04 -11.0 5.28e+01    -  1.00e+00 4.91e-01h  1
 152  1.1256007e-03 2.05e+00 1.34e-04 -11.0 2.92e+01    -  1.00e+00 9.30e-01h  1
 153  1.1256341e-03 1.09e+00 1.79e-04 -11.0 2.02e-03    -  1.00e+00 1.00e+00h  1
 154  1.1256112e-03 9.74e-01 2.25e-04 -11.0 6.01e-03    -  1.00e+00 1.20e-01h  1
 155  1.1251703e-03 5.51e-01 1.36e-04 -11.0 5.23e-03    -  1.00e+00 1.00e+00h  1
 156  1.1251413e-03 4.71e-01 2.47e-04 -11.0 1.24e-02    -  9.62e-01 1.70e-01h  1
 157  1.1275591e-03 2.45e-01 1.73e-03 -11.0 2.00e-02    -  1.00e+00 1.00e+00h  1
 158  9.9161261e-04 1.15e-01 2.02e-03 -11.0 1.73e-01    -  2.18e-01 1.00e+00h  1
 159  9.9161218e-04 1.15e-01 2.02e-03 -11.0 2.05e+00    -  1.16e-01 1.43e-07H  1
iter    objective    inf_pr   inf_du lg(mu)  ||d||  lg(rg) alpha_du alpha_pr  ls
 160  8.8901802e-04 7.81e-02 4.43e-03 -11.0 5.62e-01    -  6.05e-02 1.25e-01h  4
 161  8.9068093e-04 6.65e-02 4.32e-03 -11.0 1.42e-01    -  7.44e-01 5.16e-02h  1
 162  9.0261251e-04 0.00e+00 8.79e-03 -11.0 6.03e-03    -  8.98e-01 1.00e+00h  1
 163  8.9622249e-04 0.00e+00 1.59e-03 -11.0 2.21e-03    -  9.88e-01 1.00e+00h  1
 164  8.8934909e-04 6.29e+00 1.07e+01  -5.3 4.68e-02    -  9.95e-01 1.00e+00h  1
 165  8.6776986e-04 2.03e+00 1.31e-03  -5.3 4.75e-02    -  1.00e+00 1.00e+00h  1
 166  8.7621408e-04 2.67e-01 3.08e-03  -5.3 1.41e+02    -  7.57e-01 5.00e-01h  2
 167  8.5330466e-04 4.22e-01 1.35e-03  -5.3 7.12e+01    -  7.57e-01 9.94e-01h  1
 168  1.3752687e-03 0.00e+00 3.35e-03  -5.3 4.44e+00    -  1.48e-01 2.02e-01H  1
 169  1.0802510e-03 0.00e+00 6.18e-03  -5.3 1.13e+00    -  1.00e+00 7.94e-01f  1
iter    objective    inf_pr   inf_du lg(mu)  ||d||  lg(rg) alpha_du alpha_pr  ls
 170  1.5818464e-03 0.00e+00 1.62e-02  -5.3 1.58e-01    -  3.48e-01 1.00e+00H  1
 171  9.8463519e-04 6.11e-02 5.09e-03  -5.3 1.55e-01    -  8.74e-01 1.00e+00h  1
 172  9.7409225e-04 7.07e-02 4.35e-03  -5.3 1.81e-01    -  9.70e-01 8.97e-02h  1
 173  9.8768725e-04 0.00e+00 1.06e-03  -5.3 3.98e-02    -  1.00e+00 1.00e+00f  1
 174  1.0648028e-03 0.00e+00 4.89e-03  -5.5 5.44e-02    -  9.69e-01 1.00e+00H  1
 175  9.6183144e-04 0.00e+00 1.15e-03  -5.7 7.08e-02    -  1.00e+00 1.00e+00h  1
 176  9.4567145e-04 7.73e-04 5.75e-04  -5.9 3.07e-02    -  1.00e+00 1.00e+00h  1
 177  9.4296914e-04 0.00e+00 7.42e-04  -5.9 2.40e-02    -  1.00e+00 1.00e+00h  1
 178  9.3345921e-04 6.43e-02 2.16e-03  -5.9 1.65e-01    -  1.00e+00 1.59e-01h  2
 179  9.2595329e-04 8.29e-02 1.92e-03  -5.9 8.35e-02    -  1.00e+00 2.50e-01h  3
iter    objective    inf_pr   inf_du lg(mu)  ||d||  lg(rg) alpha_du alpha_pr  ls
 180  9.3432193e-04 5.51e-02 2.52e-03  -5.9 6.69e-02    -  1.00e+00 2.50e-01h  3
 181  9.3538447e-04 3.86e-02 2.67e-03  -5.9 3.00e-01    -  3.67e-01 2.29e-01h  3
 182  9.2064279e-04 8.92e-02 8.24e-03  -5.9 2.91e-01    -  1.00e+00 1.29e-01h  3
 183  8.8400613e-04 0.00e+00 6.73e-02  -5.9 4.67e-02    -  1.00e+00 1.00e+00h  1
 184  8.5083731e-04 0.00e+00 2.83e-03  -5.9 4.91e-02    -  1.00e+00 1.00e+00h  1
 185  8.3641931e-04 6.84e-01 2.66e-03  -6.5 6.97e-02    -  1.00e+00 1.00e+00H  1
 186  8.2137680e-04 6.11e-01 1.57e-03  -6.6 2.87e-01    -  9.19e-01 2.07e-01h  1
 187  1.0046937e-03 0.00e+00 2.49e-03  -6.6 1.58e-01    -  1.00e+00 1.00e+00h  1
 188  9.7749216e-04 0.00e+00 1.35e-03  -6.6 3.47e-01    -  2.42e-01 2.34e-01h  3
 189  9.6392424e-04 0.00e+00 3.47e-03  -6.6 4.22e-02    -  1.00e+00 9.96e-01h  1
iter    objective    inf_pr   inf_du lg(mu)  ||d||  lg(rg) alpha_du alpha_pr  ls
 190  9.5197248e-04 2.89e-03 3.41e-03  -6.6 9.79e-02    -  1.00e+00 1.00e+00f  1
 191  9.4211853e-04 5.34e-03 2.91e-03  -6.6 7.67e-01    -  6.33e-01 2.70e-02h  4
 192  9.3715895e-04 0.00e+00 1.09e-03  -6.6 3.83e-02    -  1.00e+00 1.00e+00h  1
 193  9.3119684e-04 0.00e+00 7.27e-04  -7.0 6.01e-02    -  1.00e+00 1.00e+00H  1
 194  9.2838546e-04 0.00e+00 1.07e-03  -7.1 4.80e-01    -  5.20e-01 6.55e-02h  3
 195  9.2399738e-04 0.00e+00 1.67e-03  -7.1 9.78e-01    -  7.08e-01 9.68e-02H  1
 196  9.0884478e-04 0.00e+00 1.54e-03  -7.1 5.05e-01    -  5.80e-01 1.03e-01h  2
 197  9.0786450e-04 0.00e+00 2.01e-03  -7.1 5.99e+00    -  3.04e-01 1.06e-03h  4
 198  8.8506005e-04 6.37e-02 2.71e-03  -7.1 2.11e-01    -  2.30e-02 5.00e-01h  2
 199  8.8943877e-04 4.13e-02 1.47e-03  -7.1 2.19e-01    -  1.00e+00 2.70e-01h  1
iter    objective    inf_pr   inf_du lg(mu)  ||d||  lg(rg) alpha_du alpha_pr  ls
 200  8.8673212e-04 4.09e-02 1.74e-03  -7.1 3.07e-01    -  1.00e+00 9.89e-02h  3
 201  9.0987894e-04 1.26e-03 1.27e-03  -7.1 1.81e-02    -  1.00e+00 1.00e+00h  1
 202  9.0431146e-04 1.27e-02 1.25e-03  -7.1 6.02e-02    -  1.00e+00 4.29e-01h  2
 203  9.0820366e-04 2.20e-03 7.75e-04  -7.1 1.29e-02    -  1.00e+00 1.00e+00h  1
 204  9.1023781e-04 2.47e-04 1.61e-03  -7.1 1.81e-02    -  1.00e+00 1.00e+00h  1
 205  9.0055706e-04 8.13e-03 1.56e-04  -8.1 1.44e-02    -  1.00e+00 1.00e+00h  1
 206  9.2397271e-04 3.77e-03 2.40e-03  -8.2 3.54e-02    -  7.18e-01 1.00e+00H  1
 207  9.0434389e-04 0.00e+00 1.97e-04  -8.2 4.83e-02    -  1.00e+00 1.00e+00h  1
 208  1.4375245e-03 0.00e+00 3.74e-02  -6.6 6.68e-02    -  1.00e+00 1.00e+00H  1
 209  8.3381991e-04 5.51e-01 8.28e-03  -7.1 1.14e-01    -  1.00e+00 1.00e+00h  1
iter    objective    inf_pr   inf_du lg(mu)  ||d||  lg(rg) alpha_du alpha_pr  ls
 210  8.2433860e-04 5.38e-01 8.30e-03  -7.2 1.01e-01    -  8.69e-01 2.88e-02h  1
 211  9.3158221e-04 0.00e+00 2.56e-02  -7.2 1.75e+00    -  5.97e-01 4.08e-01H  1
 212  8.1639284e-04 3.51e-01 7.18e-03  -7.2 4.77e-01    -  9.24e-02 1.00e+00h  1
 213  7.8480437e-04 3.39e-01 1.61e-03  -7.2 3.22e-02    -  1.00e+00 1.00e+00h  1
 214  8.0334746e-04 3.60e-01 5.28e-03  -7.2 6.56e-01    -  1.00e+00 1.68e-01h  1
 215  8.3133035e-04 1.66e-01 3.40e-03  -7.2 7.08e-02    -  6.17e-01 5.74e-01h  1
 216  9.0126018e-04 3.60e-02 2.61e-03  -7.2 3.19e-02    -  3.10e-01 8.12e-01h  1
 217  9.4041061e-04 2.42e-03 4.37e-03  -7.2 1.11e-01    -  1.00e+00 1.00e+00H  1
 218  8.4642834e-04 8.20e-02 1.82e-03  -7.2 1.60e-01    -  8.07e-02 3.24e-01h  1
 219  1.0779522e-03 0.00e+00 4.48e-03  -6.4 5.17e-01    -  1.00e+00 7.88e-01H  1
iter    objective    inf_pr   inf_du lg(mu)  ||d||  lg(rg) alpha_du alpha_pr  ls
 220  1.1193098e-03 9.89e-03 4.48e-03  -4.8 7.45e-01    -  1.00e+00 9.63e-02h  4
 221  1.0439747e-03 3.22e-01 5.99e-03  -4.8 6.42e-01    -  3.41e-01 1.89e-01h  3
 222  9.6812658e-04 3.35e-01 6.37e-03  -4.8 9.83e-01    -  7.56e-01 5.25e-02h  2
 223  9.7501446e-04 0.00e+00 3.94e-03  -4.8 2.15e-01    -  1.00e+00 5.14e-01h  1
 224  1.0341041e-03 5.05e-04 6.03e-03  -4.8 8.81e-02    -  6.25e-01 9.04e-01h  1
 225  9.4336737e-04 7.64e-02 3.53e-03  -4.8 1.76e-01    -  1.00e+00 1.00e+00f  1
 226  8.8972620e-04 6.85e-02 2.39e-03  -4.8 3.11e-01    -  8.28e-01 2.50e-01h  3
 227  8.7804084e-04 7.52e-02 1.22e-03  -4.8 1.40e-01    -  1.00e+00 1.00e+00h  1
 228  9.1119292e-04 2.87e-03 7.97e-04  -4.8 4.41e-02    -  1.00e+00 1.00e+00h  1
 229  9.7268550e-04 0.00e+00 2.62e-03  -4.8 7.35e-02    -  1.00e+00 1.00e+00H  1
iter    objective    inf_pr   inf_du lg(mu)  ||d||  lg(rg) alpha_du alpha_pr  ls
 230  9.0950685e-04 5.61e-02 3.38e-03  -4.8 8.42e-02    -  1.00e+00 1.00e+00h  1
 231  8.4106233e-04 1.94e-01 6.38e-03  -4.8 4.93e-01    -  1.00e+00 1.95e-01h  2
 232  8.3872976e-04 7.80e-02 2.68e-03  -4.8 1.23e-01    -  9.42e-01 5.00e-01h  2
 233  1.3243468e-03 0.00e+00 3.49e-03  -3.9 3.16e-01    -  9.91e-01 1.00e+00h  1
 234  1.1304976e-03 0.00e+00 3.47e-03  -4.0 1.96e-01    -  1.00e+00 1.00e+00h  1
 235  6.6232172e-03 0.00e+00 8.47e-02  -4.0 4.77e-01    -  7.54e-01 1.00e+00H  1
 236  5.7880343e-03 0.00e+00 7.40e-02  -4.0 4.20e-01    -  7.40e-01 6.49e-02h  4
 237  5.4812418e-03 0.00e+00 7.12e-02  -4.0 1.58e+00    -  1.00e+00 2.29e-02h  3
 238  5.3678626e-03 0.00e+00 7.00e-02  -4.0 5.22e-01    -  1.00e+00 1.21e-02h  7
 239  5.3193751e-03 0.00e+00 6.94e-02  -4.0 2.12e+00    -  4.49e-01 2.18e-03h  8
iter    objective    inf_pr   inf_du lg(mu)  ||d||  lg(rg) alpha_du alpha_pr  ls
 240  4.8602801e-03 0.00e+00 6.33e-02  -4.0 1.42e+00    -  1.00e+00 2.56e-02h  5
 241  2.2784162e-03 5.86e-02 2.44e-02  -4.0 1.00e+00    -  4.97e-01 1.89e-01h  3
 242  1.7468967e-03 0.00e+00 1.22e-02  -4.0 4.57e-02    -  1.00e+00 1.00e+00h  1
 243  1.4532386e-03 0.00e+00 3.51e-03  -4.0 4.00e-02    -  1.00e+00 1.00e+00h  1
 244  1.4443846e-03 0.00e+00 1.23e-03  -4.0 2.81e-01    -  1.00e+00 1.00e+00h  1
 245  1.3640688e-03 0.00e+00 1.59e-03  -4.0 8.93e-02    -  1.00e+00 1.00e+00h  1
 246  1.2467761e-03 0.00e+00 1.94e-03  -4.0 2.70e-01    -  1.00e+00 2.50e-01h  3
 247  1.2241740e-03 0.00e+00 3.01e-03  -4.0 7.25e-02    -  1.00e+00 1.00e+00h  1
 248  1.1880143e-03 0.00e+00 2.61e-03  -4.0 4.35e-02    -  1.00e+00 1.00e+00h  1
 249  1.1600365e-03 0.00e+00 2.04e-03  -4.0 7.69e-02    -  1.00e+00 1.00e+00H  1
iter    objective    inf_pr   inf_du lg(mu)  ||d||  lg(rg) alpha_du alpha_pr  ls
 250  1.1503589e-03 0.00e+00 5.29e-04  -4.0 4.71e-02    -  1.00e+00 1.00e+00h  1
 251  1.1424105e-03 0.00e+00 8.09e-04  -4.0 1.43e-02    -  1.00e+00 1.00e+00h  1
 252  1.0562520e-03 0.00e+00 3.90e-03  -6.0 1.88e-01    -  8.41e-01 9.85e-01h  1
 253  8.8660377e-04 2.63e-02 1.39e-03  -6.0 8.47e-02    -  9.55e-01 1.00e+00h  1
 254  8.7002471e-04 2.61e-02 2.65e-03  -5.2 6.52e-02    -  1.00e+00 1.00e+00h  1
 255  9.2685201e-04 2.53e-02 1.50e-03  -5.9 5.80e-02    -  1.00e+00 1.00e+00h  1
 256  8.4601132e-04 3.78e-02 9.13e-04  -6.1 4.32e-02    -  1.00e+00 1.00e+00h  1
 257  8.6986574e-04 1.17e-02 1.95e-03  -6.6 3.21e-02    -  1.00e+00 1.00e+00h  1
 258  8.5135809e-04 6.02e-03 6.12e-04  -7.7 2.78e-02    -  1.00e+00 1.00e+00h  1
 259  8.5220213e-04 1.69e-04 2.73e-04  -8.4 1.76e-02    -  1.00e+00 1.00e+00h  1
iter    objective    inf_pr   inf_du lg(mu)  ||d||  lg(rg) alpha_du alpha_pr  ls
 260  8.6359622e-04 0.00e+00 2.13e-03  -9.5 6.87e-02    -  1.00e+00 1.00e+00H  1
 261  8.4125971e-04 1.38e-02 5.44e-04 -11.0 4.74e-02    -  1.00e+00 1.00e+00h  1
 262  8.5179475e-04 1.23e-03 1.05e-03  -9.7 3.39e-02    -  1.00e+00 1.00e+00h  1
 263  8.8104911e-04 0.00e+00 2.09e-03 -10.6 1.08e-01    -  1.00e+00 1.00e+00H  1
 264  8.3826755e-04 8.62e-03 5.73e-04 -10.7 1.14e-01    -  1.00e+00 1.00e+00h  1
 265  8.4352434e-04 5.70e-03 6.37e-04  -8.7 1.99e-01    -  1.00e+00 2.36e-01h  1
 266  8.4135275e-04 4.07e-02 4.16e-03  -7.3 1.11e-01    -  1.00e+00 1.00e+00h  1
 267  8.3692459e-04 1.61e-02 7.02e-04  -6.7 1.31e-01    -  9.37e-01 1.00e+00h  1
 268  8.4883880e-04 2.49e-03 9.75e-04  -5.9 5.08e-02    -  1.00e+00 1.00e+00h  1
 269  8.4580183e-04 2.21e-02 1.27e-03  -5.7 9.77e-02    -  1.00e+00 1.00e+00h  1
iter    objective    inf_pr   inf_du lg(mu)  ||d||  lg(rg) alpha_du alpha_pr  ls
 270  9.3987206e-04 1.66e-02 4.20e-03  -5.7 1.87e-01    -  7.51e-01 5.31e-01H  1
 271  8.4689456e-04 3.37e-03 7.17e-04  -5.7 1.20e-01    -  1.00e+00 9.11e-01F  1
 272  8.5743761e-04 9.00e-03 9.00e-03  -5.7 2.27e-01    -  2.64e-01 5.00e-01f  2
 273  7.6436518e-04 2.45e-01 3.09e-03  -5.7 1.73e-01    -  1.00e+00 5.74e-01h  1
 274  2.0580135e-03 0.00e+00 2.06e-02  -4.3 3.80e-01    -  1.00e+00 6.25e-01H  1
 275  1.5308368e-03 0.00e+00 1.77e-02  -4.5 2.15e-01    -  1.00e+00 1.00e+00H  1
 276  8.9084985e-04 1.75e-01 4.77e-03  -4.5 2.30e-01    -  1.00e+00 1.00e+00h  1
 277  9.0067877e-04 0.00e+00 2.49e-03  -4.5 6.88e-02    -  1.00e+00 1.00e+00h  1
 278  9.3018868e-04 0.00e+00 1.47e-03  -4.5 4.19e-02    -  1.00e+00 1.00e+00h  1
 279  9.3473067e-04 0.00e+00 1.60e-03  -4.5 6.06e-02    -  1.00e+00 1.00e+00h  1
iter    objective    inf_pr   inf_du lg(mu)  ||d||  lg(rg) alpha_du alpha_pr  ls
 280  9.1941269e-04 0.00e+00 8.52e-04  -4.5 1.57e-02    -  1.00e+00 1.00e+00h  1
 281  9.1831712e-04 7.02e-02 7.32e-03  -4.5 3.32e-02    -  1.00e+00 1.00e+00h  1
 282  8.9736438e-04 1.64e-01 3.63e-03  -4.5 5.07e-02    -  1.00e+00 1.00e+00h  1
 283  9.0514264e-04 9.99e-02 2.59e-03  -4.5 1.17e-01    -  1.00e+00 4.95e-01h  2
 284  9.3713537e-04 2.00e-02 1.33e-03  -4.5 4.54e-02    -  1.00e+00 5.00e-01h  2
 285  9.4872306e-04 0.00e+00 7.82e-04  -4.5 2.53e-02    -  1.00e+00 5.00e-01h  2
 286  9.5044086e-04 0.00e+00 4.63e-04  -4.5 4.07e-02    -  1.00e+00 1.25e-01h  4
 287  9.9329470e-04 0.00e+00 2.61e-03  -4.5 1.34e-01    -  1.00e+00 1.00e+00H  1
 288  9.5107467e-04 0.00e+00 8.20e-04  -4.5 3.73e-02    -  1.00e+00 1.00e+00h  1
 289  9.5618492e-04 0.00e+00 6.65e-04  -4.5 2.15e-02    -  1.00e+00 1.00e+00h  1
iter    objective    inf_pr   inf_du lg(mu)  ||d||  lg(rg) alpha_du alpha_pr  ls
 290  9.5321815e-04 0.00e+00 3.43e-04  -4.5 3.85e-02    -  1.00e+00 1.00e+00h  1
 291  9.5345281e-04 0.00e+00 3.36e-04  -4.5 2.48e-01    -  1.00e+00 6.25e-02h  5
 292  9.7906387e-04 0.00e+00 1.03e-03  -4.5 6.13e-02    -  1.00e+00 1.00e+00H  1
 293  9.6456042e-04 0.00e+00 2.72e-04  -4.5 1.83e-02    -  1.00e+00 1.00e+00h  1
 294  9.5843052e-04 0.00e+00 4.71e-04  -4.5 4.24e-02    -  1.00e+00 1.00e+00H  1
 295  9.8357833e-04 0.00e+00 2.18e-03  -4.5 6.38e-02    -  1.00e+00 1.00e+00H  1
 296  9.7551664e-04 0.00e+00 1.59e-03  -4.5 8.70e-02    -  1.00e+00 2.50e-01h  3
 297  1.0652181e-03 0.00e+00 2.09e-02  -4.5 1.53e-01    -  1.00e+00 1.00e+00H  1
 298  9.2609670e-04 1.84e-01 2.98e-03  -5.1 3.36e-01    -  1.00e+00 1.00e+00h  1
 299  8.8411697e-04 5.05e-01 6.62e-03  -5.2 3.86e-01    -  1.00e+00 5.00e-01h  2
iter    objective    inf_pr   inf_du lg(mu)  ||d||  lg(rg) alpha_du alpha_pr  ls
 300  8.4229355e-04 4.96e-01 2.12e-03  -5.2 1.41e+00    -  8.13e-01 6.88e-02h  3

Number of Iterations....: 300

                                   (scaled)                 (unscaled)
Objective...............:   8.4229355178677603e-04    8.4229355178677603e-04
Dual infeasibility......:   2.1240090853415230e-03    2.1240090853415230e-03
Constraint violation....:   4.9618047948214045e-01    4.9618047948214045e-01
Variable bound violation:   0.0000000000000000e+00    0.0000000000000000e+00
Complementarity.........:   2.4015807867940804e-05    2.4015807867940804e-05
Overall NLP error.......:   4.9618047948214045e-01    4.9618047948214045e-01


Number of objective function evaluations             = 686
Number of objective gradient evaluations             = 300
Number of equality constraint evaluations            = 0
Number of inequality constraint evaluations          = 688
Number of equality constraint Jacobian evaluations   = 0
Number of inequality constraint Jacobian evaluations = 302
Number of Lagrangian Hessian evaluations             = 0
Total seconds in IPOPT                               = 55.940

EXIT: Maximum Number of Iterations Exceeded.
